000 000 000 000 000 000 000 000 -99 -99 -99 -99 000 000 -99 -99 -99 -99 000 000 -99 -99 000 000 000 000 -99 000 000 -99 -99
000 000 000 000 000 000 000 000 -99 -99 -99 -99 -99 000 -99 000 -99 -99 -99 000 000 -99 000 000 000 000 000 000 000 -99 -99
000 000 000 000 000 000 000 000 -99 -99 -99 -99 -99 -99 000 000 -99 -99 -99 -99 000 -99 -99 000 000 000 000 000 000 -99 -99
001 000 000 000 000 000 000 000 -99 -99 -99 -99 -99 -99 000 000 -99 -99 -99 -99 -99 -99 -99 000 000 000 000 001 000 000 -99
007 000 000 000 000 000 000 000 -99 -99 -99 -99 000 -99 -99 000 -99 -99 000 000 000 -99 -99 000 000 000 000 001 000 -99 -99
007 000 000 000 000 000 000 000 000 000 -99 000 000 -99 -99 000 000 000 000 000 000 000 000 000 000 000 -99 000 000 -99 -99
002 000 000 000 000 000 000 000 000 000 000 000 000 000 -99 000 000 000 000 000 000 000 000 000 000 000 -99 -99 -99 -99 -99
000 000 000 000 000 000 001 002 001 000 000 000 000 000 000 000 000 000 000 000 000 000 000 -99 -99 -99 -99 -99 -99 -99 -99
000 000 000 000 000 000 000 007 005 000 000 000 001 000 000 000 000 000 001 000 000 -99 -99 -99 -99 -99 -99 -99 -99 -99 -99
000 000 000 000 000 000 000 005 009 000 000 000 004 001 000 001 008 005 001 000 000 000 -99 -99 000 -99 000 000 000 000 -99
000 000 000 000 000 -99 000 005 004 004 000 000 004 001 002 006 010 018 004 000 000 001 000 -99 000 000 000 000 000 000 000
000 000 000 000 000 000 -99 000 000 005 000 000 012 002 009 016 021 022 001 001 000 001 001 000 000 -99 000 000 000 000 000
000 000 000 000 000 000 000 000 000 004 000 001 010 007 016 021 023 026 002 004 006 004 006 000 000 -99 000 000 000 000 000
000 000 000 000 000 000 000 000 000 000 001 001 014 005 025 017 018 020 005 005 016 006 003 000 000 -99 000 000 000 -99 000
000 000 -99 000 000 000 000 000 000 002 013 011 020 008 013 016 023 021 031 035 021 006 006 000 000 000 000 000 000 -99 -99
000 -99 000 000 000 000 000 000 000 006 025 061 072 018 023 022 024 031 057 052 022 005 002 000 000 000 000 000 000 -99 000
000 000 000 000 000 000 000 000 002 017 058 029 029 028 026 021 033 048 069 034 016 006 004 000 000 000 -99 -99 000 000 000
000 000 000 -99 -99 000 000 000 002 008 028 031 017 012 015 015 031 054 083 026 016 004 002 000 000 000 -99 -99 -99 000 000
000 000 000 000 -99 000 000 002 000 004 008 010 012 005 006 007 020 039 071 058 054 022 008 000 -99 000 -99 -99 -99 000 000
000 000 000 000 000 000 000 001 001 003 007 008 006 002 001 001 003 007 026 037 075 042 014 004 -99 -99 -99 -99 -99 -99 -99
000 000 000 000 000 000 000 000 000 001 005 004 002 000 000 000 001 002 006 016 054 085 015 011 011 -99 -99 -99 -99 -99 -99
000 000 000 000 000 000 000 000 000 001 002 003 001 000 000 000 000 001 004 010 045 053 028 018 010 -99 -99 -99 -99 -99 -99
000 000 000 000 000 000 001 000 000 000 001 003 001 000 000 000 000 001 002 007 029 031 041 020 010 -99 -99 -99 -99 -99 -99
000 000 000 000 000 000 001 000 001 001 000 002 001 000 000 000 000 000 002 007 016 014 028 008 012 -99 -99 -99 -99 -99 -99
000 000 000 000 000 000 001 001 000 002 000 000 000 000 000 000 000 000 000 004 005 002 013 005 -99 -99 -99 -99 -99 -99 -99
000 000 000 002 001 001 001 001 001 001 000 000 000 000 000 000 000 000 000 000 002 001 004 -99 -99 -99 -99 -99 -99 -99 000
000 000 001 002 002 002 001 001 001 001 000 000 000 000 000 000 000 000 000 000 000 000 000 -99 -99 -99 -99 -99 -99 -99 000
001 001 001 003 002 002 002 002 001 000 000 000 000 000 000 000 000 000 000 000 000 000 000 -99 -99 -99 -99 -99 -99 000 000
000 001 001 002 003 002 002 001 000 000 000 000 000 000 000 000 000 000 000 000 000 000 -99 -99 -99 -99 -99 -99 -99 000 000
000 000 001 000 002 002 001 002 001 000 000 001 000 001 000 000 000 000 000 000 -99 000 -99 -99 -99 -99 -99 -99 -99 -99 000
000 000 001 000 002 002 001 001 001 001 001 001 001 001 000 000 000 000 000 000 -99 000 -99 -99 -99 -99 -99 -99 -99 -99 000
000 000 000 000 000 001 001 002 001 002 002 001 001 000 000 000 000 000 000 -99 -99 -99 -99 000 000 -99 -99 000 000 000 000
000 000 000 000 001 002 001 002 001 001 001 000 000 000 000 000 000 000 000 000 -99 -99 000 000 000 -99 000 000 000 000 000
000 000 000 001 002 003 001 001 001 001 001 001 000 000 000 -99 000 000 000 000 -99 000 000 000 000 000 000 000 000 000 000
000 003 002 002 003 002 001 001 001 001 002 000 000 000 000 000 000 -99 000 000 000 000 000 -99 000 000 000 000 000 000 000
004 008 006 004 003 004 001 001 001 002 001 000 000 000 000 000 000 -99 000 000 000 -99 000 -99 -99 000 000 000 000 000 000
006 013 014 005 006 005 003 002 002 002 001 000 000 000 000 000 000 000 000 000 000 -99 000 000 -99 000 000 000 000 000 000
011 016 018 010 010 010 011 009 005 002 001 001 000 000 000 000 000 -99 000 000 000 000 000 000 000 000 000 000 000 000 -99
011 016 017 020 010 005 021 023 013 005 004 002 000 000 000 000 -99 000 000 000 000 000 000 000 000 000 000 000 -99 -99 -99
004 013 014 010 007 006 013 022 011 015 006 001 000 000 000 000 -99 000 000 000 000 -99 000 000 000 000 000 000 -99 -99 -99
004 015 016 011 008 005 005 015 018 008 003 000 001 001 000 000 000 000 000 000 000 -99 000 000 000 -99 000 -99 -99 -99 -99
002 010 014 017 017 011 009 006 005 003 002 001 001 001 001 000 -99 000 000 000 000 -99 000 000 -99 -99 -99 -99 -99 -99 000
003 008 017 024 026 014 010 001 001 000 001 000 000 000 001 000 000 000 000 000 000 000 000 -99 -99 -99 -99 -99 000 -99 000
004 016 014 018 028 025 004 002 000 000 000 000 000 000 000 000 000 000 000 000 000 000 000 -99 000 -99 -99 -99 -99 -99 000
011 017 016 029 048 010 000 002 000 000 000 000 000 000 000 000 000 000 000 000 000 000 000 000 000 -99 -99 000 -99 -99 -99
013 009 014 015 013 001 000 001 000 000 000 000 000 000 000 -99 000 000 000 -99 000 000 -99 000 000 -99 -99 000 -99 -99 -99
005 001 000 000 001 000 000 000 000 -99 -99 000 000 000 -99 -99 -99 000 000 000 000 000 -99 000 000 000 -99 -99 -99 -99 -99
001 000 000 000 -99 000 000 000 000 000 000 000 -99 -99 -99 -99 -99 000 -99 000 000 -99 -99 000 000 000 -99 -99 -99 -99 -99
000 000 -99 -99 -99 -99 -99 -99 000 000 -99 -99 -99 -99 -99 -99 -99 000 000 000 000 000 -99 000 000 000 000 000 -99 -99 -99
000 -99 -99 -99 -99 -99 -99 -99 -99 -99 -99 -99 -99 -99 -99 -99 -99 000 000 000 000 -99 -99 -99 000 000 000 000 -99 -99 -99
000 000 000 -99 -99 -99 -99 -99 -99 -99 -99 -99 -99 -99 -99 -99 -99 000 000 000 000 -99 -99 -99 -99 000 000 -99 -99 -99 -99
000 000 000 -99 -99 -99 -99 -99 -99 -99 -99 -99 -99 -99 -99 -99 -99 000 000 000 -99 -99 -99 -99 -99 000 -99 -99 -99 -99 -99
000 000 000 -99 -99 -99 -99 -99 -99 -99 -99 -99 -99 -99 -99 -99 -99 000 000 000 -99 -99 -99 -99 -99 -99 -99 -99 -99 -99 -99
001 000 000 000 -99 -99 -99 -99 -99 -99 -99 -99 -99 -99 -99 -99 000 000 000 -99 -99 -99 -99 -99 -99 -99 -99 -99 -99 -99 -99
001 000 000 000 -99 -99 -99 -99 -99 -99 -99 -99 -99 -99 -99 -99 000 000 -99 -99 -99 -99 -99 -99 -99 -99 -99 -99 -99 -99 -99
